25° run output:
{
    "Function": "kroA300.tsp",
    "Problem dimension": [
        288,
        281,
        179,
        118,
        98,
        248,
        68,
        172,
        222,
        192,
        292,
        47,
        105,
        254,
        150,
        101,
        228,
        247,
        81,
        245,
        104,
        185,
        144,
        14,
        5,
        285,
        266,
        226,
        260,
        233,
        224,
        55,
        250,
        74,
        249,
        271,
        240,
        143,
        154,
        235,
        76,
        215,
        91,
        44,
        212,
        103,
        243,
        32,
        218,
        151,
        126,
        156,
        278,
        294,
        135,
        207,
        121,
        193,
        13,
        69,
        163,
        155,
        56,
        164,
        187,
        50,
        21,
        57,
        210,
        60,
        30,
        149,
        227,
        170,
        7,
        176,
        23,
        174,
        237,
        209,
        29,
        201,
        124,
        78,
        33,
        41,
        64,
        70,
        49,
        214,
        229,
        191,
        298,
        115,
        17,
        12,
        59,
        203,
        166,
        268,
        66,
        282,
        31,
        162,
        6,
        198,
        51,
        10,
        205,
        128,
        267,
        87,
        67,
        157,
        35,
        283,
        234,
        72,
        11,
        90,
        180,
        139,
        296,
        65,
        123,
        182,
        0,
        148,
        175,
        216,
        211,
        279,
        202,
        289,
        96,
        99,
        37,
        27,
        114,
        83,
        117,
        219,
        94,
        73,
        2,
        290,
        119,
        36,
        206,
        141,
        54,
        217,
        24,
        102,
        140,
        244,
        92,
        287,
        95,
        221,
        48,
        146,
        264,
        93,
        132,
        256,
        131,
        130,
        280,
        171,
        120,
        110,
        3,
        165,
        20,
        168,
        255,
        129,
        108,
        236,
        53,
        82,
        167,
        239,
        274,
        173,
        190,
        189,
        52,
        161,
        231,
        63,
        186,
        106,
        276,
        111,
        142,
        38,
        297,
        34,
        225,
        80,
        196,
        79,
        232,
        213,
        197,
        257,
        181,
        71,
        137,
        43,
        246,
        263,
        9,
        291,
        133,
        84,
        220,
        152,
        86,
        200,
        18,
        19,
        147,
        208,
        85,
        138,
        136,
        112,
        97,
        88,
        40,
        261,
        58,
        42,
        61,
        253,
        262,
        107,
        188,
        77,
        252,
        273,
        270,
        46,
        158,
        45,
        275,
        284,
        109,
        8,
        28,
        169,
        89,
        199,
        122,
        272,
        22,
        265,
        4,
        159,
        230,
        25,
        269,
        127,
        100,
        26,
        183,
        178,
        15,
        62,
        238,
        299,
        195,
        134,
        116,
        251,
        259,
        258,
        160,
        242,
        39,
        223,
        113,
        293,
        194,
        277,
        177,
        295,
        125,
        204,
        153,
        75,
        184,
        286,
        241,
        1,
        16,
        145
    ],
    "Global Optimum": 0,
    "Algorithm": "Genetic algorithm",
    "Parameters": {
        "population": 30,
        "offspring": 30,
        "mutation probability": 0.0033333333333333335,
        "crossover probability": 0.9
    },
    "Fitness": 308609,
    "Solution": [
        288,
        281,
        179,
        118,
        98,
        248,
        68,
        172,
        222,
        192,
        292,
        47,
        105,
        254,
        150,
        101,
        228,
        247,
        81,
        245,
        104,
        185,
        144,
        14,
        5,
        285,
        266,
        226,
        260,
        233,
        224,
        55,
        250,
        74,
        249,
        271,
        240,
        143,
        154,
        235,
        76,
        215,
        91,
        44,
        212,
        103,
        243,
        32,
        218,
        151,
        126,
        156,
        278,
        294,
        135,
        207,
        121,
        193,
        13,
        69,
        163,
        155,
        56,
        164,
        187,
        50,
        21,
        57,
        210,
        60,
        30,
        149,
        227,
        170,
        7,
        176,
        23,
        174,
        237,
        209,
        29,
        201,
        124,
        78,
        33,
        41,
        64,
        70,
        49,
        214,
        229,
        191,
        298,
        115,
        17,
        12,
        59,
        203,
        166,
        268,
        66,
        282,
        31,
        162,
        6,
        198,
        51,
        10,
        205,
        128,
        267,
        87,
        67,
        157,
        35,
        283,
        234,
        72,
        11,
        90,
        180,
        139,
        296,
        65,
        123,
        182,
        0,
        148,
        175,
        216,
        211,
        279,
        202,
        289,
        96,
        99,
        37,
        27,
        114,
        83,
        117,
        219,
        94,
        73,
        2,
        290,
        119,
        36,
        206,
        141,
        54,
        217,
        24,
        102,
        140,
        244,
        92,
        287,
        95,
        221,
        48,
        146,
        264,
        93,
        132,
        256,
        131,
        130,
        280,
        171,
        120,
        110,
        3,
        165,
        20,
        168,
        255,
        129,
        108,
        236,
        53,
        82,
        167,
        239,
        274,
        173,
        190,
        189,
        52,
        161,
        231,
        63,
        186,
        106,
        276,
        111,
        142,
        38,
        297,
        34,
        225,
        80,
        196,
        79,
        232,
        213,
        197,
        257,
        181,
        71,
        137,
        43,
        246,
        263,
        9,
        291,
        133,
        84,
        220,
        152,
        86,
        200,
        18,
        19,
        147,
        208,
        85,
        138,
        136,
        112,
        97,
        88,
        40,
        261,
        58,
        42,
        61,
        253,
        262,
        107,
        188,
        77,
        252,
        273,
        270,
        46,
        158,
        45,
        275,
        284,
        109,
        8,
        28,
        169,
        89,
        199,
        122,
        272,
        22,
        265,
        4,
        159,
        230,
        25,
        269,
        127,
        100,
        26,
        183,
        178,
        15,
        62,
        238,
        299,
        195,
        134,
        116,
        251,
        259,
        258,
        160,
        242,
        39,
        223,
        113,
        293,
        194,
        277,
        177,
        295,
        125,
        204,
        153,
        75,
        184,
        286,
        241,
        1,
        16,
        145
    ],
    "Nb of functions evaluations": 200010,
    "Computational time in seconds": 320.8761487007141,
    "Stopping criterion in evaluations": 200000
}